50

100 14 217
99 17 192
98 0 189
97 16 228
95 11 420
94 12 288
92 28 394
92 10 210
91 11 378
82 2 258
80 11 371
77 8 479
76 2 421
75 10 308
73 5 491
73 7 458
73 9 456
71 6 492
68 8 225
65 8 384
65 4 333
63 2 239
63 1 469
63 12 491
60 12 296
59 9 220
53 4 488
45 5 326
44 0 471
40 11 415
31 9 215
25 7 305
24 2 441
24 0 495
24 2 325
23 1 430
22 4 422
21 6 247
21 6 278
15 2 233
14 3 267
14 1 409
10 3 379
10 1 461
7 1 344
7 2 354
6 2 248
3 1 239
2 0 448
2 0 295
